10	6	3.85
2 4 1 9 2 7 3 7 4 4 5 1 8 2 7 3 8 5 5 6 3
2 1 2 4 1 3 9
2 5 1 6 2 9 3 2 4 3 5 3 5 1 5 2 3 3 8 4 4 6 1
2 5 2 2 3 6 4 7 5 8 6 3 6 1 3 2 6 3 5 4 2 5 7 6 4
2 5 2 4 3 7 4 3 5 7 6 7 5 1 8 3 7 4 7 5 9 6 1
2 2 3 9 6 8 2 3 7 4 4
2 6 1 5 2 7 3 5 4 1 5 3 6 6 1 5 7
2 1 2 3 6 1 1 2 5 3 6 4 2 5 9 6 6
2 6 1 9 2 7 3 4 4 9 5 3 6 5 6 1 1 2 6 3 1 4 3 5 4 6 5
2 1 6 2 4 1 5 2 1 5 6 6 1
